%%%mzn-stat: initTime=0.004304228
%%%mzn-stat: objective=332
%%%mzn-stat: nodes=405
%%%mzn-stat: restarts=0
%%%mzn-stat: peakDepth=72
%%%mzn-stat: solveTime=0.018907265
%%%mzn-stat: variables=278
%%%mzn-stat: propagators=181
%%%mzn-stat: failures=333
%%%mzn-stat: propagations=42245
%%%mzn-stat: nogoods=333
%%%mzn-stat: AverageConflictSize=2.045045045045045
%%%mzn-stat: NumUnitNogoodsLearned=331
%%%mzn-stat: AverageLearnedNogoodLength=1.042042042042042
%%%mzn-stat: AverageBacktrackAmount=0
%%%mzn-stat: AverageLbd=1.006006006006006
%%%mzn-stat-end
maxleg = 332;
succ = array1d(1..20,[10, 1, 12, 14, 16, 7, 5, 20, 19, 6, 13, 2, 17, 3, 8, 11, 18, 9, 15, 4]);
% time elapsed: 4.63 s
----------
==========
% time elapsed: 4.63 s
%%%mzn-stat: initTime=0.004304228
%%%mzn-stat: objective=332
%%%mzn-stat: nodes=405
%%%mzn-stat: restarts=0
%%%mzn-stat: peakDepth=72
%%%mzn-stat: solveTime=0.018911813
%%%mzn-stat: variables=278
%%%mzn-stat: propagators=181
%%%mzn-stat: failures=333
%%%mzn-stat: propagations=42245
%%%mzn-stat: nogoods=333
%%%mzn-stat: AverageConflictSize=2.045045045045045
%%%mzn-stat: NumUnitNogoodsLearned=331
%%%mzn-stat: AverageLearnedNogoodLength=1.042042042042042
%%%mzn-stat: AverageBacktrackAmount=0
%%%mzn-stat: AverageLbd=1.006006006006006
%%%mzn-stat-end
